p cnf 20 31
-1 3 9 10 17 0 
-2 5 6 7 8 14 16 17 0 
-3 1 9 10 17 0 
-4 17 0 
-5 2 6 7 8 14 16 18 0 
-5 2 6 7 8 14 16 19 0 
-5 2 6 7 8 14 16 17 0 
-4 19 0 
-4 18 0 
-6 2 5 7 8 14 16 17 0 
-7 2 5 6 8 14 16 18 0 
-7 2 5 6 8 14 16 19 0 
-7 2 5 6 8 14 16 17 0 
-5 2 6 7 8 14 16 20 0 
-7 2 5 6 8 14 16 20 0 
-8 2 5 6 7 14 16 19 0 
-8 2 5 6 7 14 16 18 0 
-9 1 3 10 17 0 
-10 1 3 9 17 0 
-11 17 0 
-8 2 5 6 7 14 16 20 0 
-12 18 0 
-12 19 0 
-13 17 0 
-8 2 5 6 7 14 16 17 0 
-14 2 5 6 7 8 16 17 0 
-15 19 0 
-16 2 5 6 7 8 14 19 0 
-16 2 5 6 7 8 14 17 0 
-16 2 5 6 7 8 14 18 0 
-16 2 5 6 7 8 14 20 0 
